21
 1 315 15
 2 63 3
 3 126 6
 4 147 7
 5 210 10
 6 294 14
 7 420 20
 8 126 6
 9 168 8
 10 315 15
 11 252 12
 12 189 9
 13 147 7
 14 420 20
 15 21 1
 16 252 12
 17 42 2
 18 21 1
 19 357 17
 20 84 4
 21 357 17
273